p cnf 464 1711
c p weight 34 -1 0
c p weight -34 1 0
c p weight 36 6.12323399573676603586882014729198302312846062338790031898128063403419218957424163818359375E-17 0
c p weight -36 1 0
c p weight 37 1 0
c p weight -37 1 0
c p weight 38 -1 0
c p weight -38 1 0
c p weight 40 -1 0
c p weight -40 1 0
c p weight 42 -1 0
c p weight -42 1 0
c p weight 44 6.12323399573676603586882014729198302312846062338790031898128063403419218957424163818359375E-17 0
c p weight -44 1 0
c p weight 45 1 0
c p weight -45 1 0
c p weight 46 -1 0
c p weight -46 1 0
c p weight 48 -1 0
c p weight -48 1 0
c p weight 50 -1 0
c p weight -50 1 0
c p weight 52 6.12323399573676603586882014729198302312846062338790031898128063403419218957424163818359375E-17 0
c p weight -52 1 0
c p weight 53 1 0
c p weight -53 1 0
c p weight 54 -1 0
c p weight -54 1 0
c p weight 56 -1 0
c p weight -56 1 0
c p weight 59 -1 0
c p weight -59 1 0
c p weight 61 -1 0
c p weight -61 1 0
c p weight 63 6.12323399573676603586882014729198302312846062338790031898128063403419218957424163818359375E-17 0
c p weight -63 1 0
c p weight 64 1 0
c p weight -64 1 0
c p weight 65 -1 0
c p weight -65 1 0
c p weight 67 -1 0
c p weight -67 1 0
c p weight 69 -1 0
c p weight -69 1 0
c p weight 71 6.12323399573676603586882014729198302312846062338790031898128063403419218957424163818359375E-17 0
c p weight -71 1 0
c p weight 72 1 0
c p weight -72 1 0
c p weight 73 -1 0
c p weight -73 1 0
c p weight 75 -1 0
c p weight -75 1 0
c p weight 77 -1 0
c p weight -77 1 0
c p weight 79 6.12323399573676603586882014729198302312846062338790031898128063403419218957424163818359375E-17 0
c p weight -79 1 0
c p weight 80 1 0
c p weight -80 1 0
c p weight 81 -1 0
c p weight -81 1 0
c p weight 83 -1 0
c p weight -83 1 0
c p weight 85 -1 0
c p weight -85 1 0
c p weight 87 6.12323399573676603586882014729198302312846062338790031898128063403419218957424163818359375E-17 0
c p weight -87 1 0
c p weight 88 1 0
c p weight -88 1 0
c p weight 89 -1 0
c p weight -89 1 0
c p weight 91 -1 0
c p weight -91 1 0
c p weight 94 -1 0
c p weight -94 1 0
c p weight 96 -1 0
c p weight -96 1 0
c p weight 98 6.12323399573676603586882014729198302312846062338790031898128063403419218957424163818359375E-17 0
c p weight -98 1 0
c p weight 99 1 0
c p weight -99 1 0
c p weight 100 -1 0
c p weight -100 1 0
c p weight 102 -1 0
c p weight -102 1 0
c p weight 104 -1 0
c p weight -104 1 0
c p weight 106 6.12323399573676603586882014729198302312846062338790031898128063403419218957424163818359375E-17 0
c p weight -106 1 0
c p weight 107 1 0
c p weight -107 1 0
c p weight 108 -1 0
c p weight -108 1 0
c p weight 110 -1 0
c p weight -110 1 0
c p weight 112 -1 0
c p weight -112 1 0
c p weight 114 6.12323399573676603586882014729198302312846062338790031898128063403419218957424163818359375E-17 0
c p weight -114 1 0
c p weight 115 1 0
c p weight -115 1 0
c p weight 116 -1 0
c p weight -116 1 0
c p weight 118 -1 0
c p weight -118 1 0
c p weight 121 -1 0
c p weight -121 1 0
c p weight 123 -1 0
c p weight -123 1 0
c p weight 125 6.12323399573676603586882014729198302312846062338790031898128063403419218957424163818359375E-17 0
c p weight -125 1 0
c p weight 126 1 0
c p weight -126 1 0
c p weight 127 -1 0
c p weight -127 1 0
c p weight 129 -1 0
c p weight -129 1 0
c p weight 131 -1 0
c p weight -131 1 0
c p weight 133 6.12323399573676603586882014729198302312846062338790031898128063403419218957424163818359375E-17 0
c p weight -133 1 0
c p weight 134 1 0
c p weight -134 1 0
c p weight 135 -1 0
c p weight -135 1 0
c p weight 137 -1 0
c p weight -137 1 0
c p weight 140 -1 0
c p weight -140 1 0
c p weight 142 -1 0
c p weight -142 1 0
c p weight 144 6.12323399573676603586882014729198302312846062338790031898128063403419218957424163818359375E-17 0
c p weight -144 1 0
c p weight 145 1 0
c p weight -145 1 0
c p weight 146 -1 0
c p weight -146 1 0
c p weight 148 -1 0
c p weight -148 1 0
c p weight 150 -1 0
c p weight -150 1 0
c p weight 152 6.12323399573676603586882014729198302312846062338790031898128063403419218957424163818359375E-17 0
c p weight -152 1 0
c p weight 153 1 0
c p weight -153 1 0
c p weight 154 -1 0
c p weight -154 1 0
c p weight 156 -1 0
c p weight -156 1 0
c p weight 158 -1 0
c p weight -158 1 0
c p weight 160 6.12323399573676603586882014729198302312846062338790031898128063403419218957424163818359375E-17 0
c p weight -160 1 0
c p weight 161 1 0
c p weight -161 1 0
c p weight 162 -1 0
c p weight -162 1 0
c p weight 164 -1 0
c p weight -164 1 0
c p weight 166 -1 0
c p weight -166 1 0
c p weight 168 6.12323399573676603586882014729198302312846062338790031898128063403419218957424163818359375E-17 0
c p weight -168 1 0
c p weight 169 1 0
c p weight -169 1 0
c p weight 170 -1 0
c p weight -170 1 0
c p weight 172 -1 0
c p weight -172 1 0
c p weight 175 -1 0
c p weight -175 1 0
c p weight 177 -1 0
c p weight -177 1 0
c p weight 179 6.12323399573676603586882014729198302312846062338790031898128063403419218957424163818359375E-17 0
c p weight -179 1 0
c p weight 180 1 0
c p weight -180 1 0
c p weight 181 -1 0
c p weight -181 1 0
c p weight 183 -1 0
c p weight -183 1 0
c p weight 185 -1 0
c p weight -185 1 0
c p weight 187 6.12323399573676603586882014729198302312846062338790031898128063403419218957424163818359375E-17 0
c p weight -187 1 0
c p weight 188 1 0
c p weight -188 1 0
c p weight 189 -1 0
c p weight -189 1 0
c p weight 191 -1 0
c p weight -191 1 0
c p weight 193 -1 0
c p weight -193 1 0
c p weight 195 6.12323399573676603586882014729198302312846062338790031898128063403419218957424163818359375E-17 0
c p weight -195 1 0
c p weight 196 1 0
c p weight -196 1 0
c p weight 197 -1 0
c p weight -197 1 0
c p weight 199 -1 0
c p weight -199 1 0
c p weight 201 -1 0
c p weight -201 1 0
c p weight 203 6.12323399573676603586882014729198302312846062338790031898128063403419218957424163818359375E-17 0
c p weight -203 1 0
c p weight 204 1 0
c p weight -204 1 0
c p weight 205 -1 0
c p weight -205 1 0
c p weight 207 -1 0
c p weight -207 1 0
c p weight 210 -1 0
c p weight -210 1 0
c p weight 212 -1 0
c p weight -212 1 0
c p weight 214 6.12323399573676603586882014729198302312846062338790031898128063403419218957424163818359375E-17 0
c p weight -214 1 0
c p weight 215 1 0
c p weight -215 1 0
c p weight 216 -1 0
c p weight -216 1 0
c p weight 218 -1 0
c p weight -218 1 0
c p weight 220 -1 0
c p weight -220 1 0
c p weight 222 6.12323399573676603586882014729198302312846062338790031898128063403419218957424163818359375E-17 0
c p weight -222 1 0
c p weight 223 1 0
c p weight -223 1 0
c p weight 224 -1 0
c p weight -224 1 0
c p weight 226 -1 0
c p weight -226 1 0
c p weight 228 -1 0
c p weight -228 1 0
c p weight 230 6.12323399573676603586882014729198302312846062338790031898128063403419218957424163818359375E-17 0
c p weight -230 1 0
c p weight 231 1 0
c p weight -231 1 0
c p weight 232 -1 0
c p weight -232 1 0
c p weight 234 -1 0
c p weight -234 1 0
c p weight 237 -1 0
c p weight -237 1 0
c p weight 239 -1 0
c p weight -239 1 0
c p weight 241 6.12323399573676603586882014729198302312846062338790031898128063403419218957424163818359375E-17 0
c p weight -241 1 0
c p weight 242 1 0
c p weight -242 1 0
c p weight 243 -1 0
c p weight -243 1 0
c p weight 245 -1 0
c p weight -245 1 0
c p weight 247 -1 0
c p weight -247 1 0
c p weight 249 6.12323399573676603586882014729198302312846062338790031898128063403419218957424163818359375E-17 0
c p weight -249 1 0
c p weight 250 1 0
c p weight -250 1 0
c p weight 251 -1 0
c p weight -251 1 0
c p weight 253 -1 0
c p weight -253 1 0
c p weight 255 -1 0
c p weight -255 1 0
c p weight 257 6.12323399573676603586882014729198302312846062338790031898128063403419218957424163818359375E-17 0
c p weight -257 1 0
c p weight 258 1 0
c p weight -258 1 0
c p weight 259 -1 0
c p weight -259 1 0
c p weight 261 -1 0
c p weight -261 1 0
c p weight 264 -1 0
c p weight -264 1 0
c p weight 266 -1 0
c p weight -266 1 0
c p weight 268 6.12323399573676603586882014729198302312846062338790031898128063403419218957424163818359375E-17 0
c p weight -268 1 0
c p weight 269 1 0
c p weight -269 1 0
c p weight 270 -1 0
c p weight -270 1 0
c p weight 272 -1 0
c p weight -272 1 0
c p weight 274 -1 0
c p weight -274 1 0
c p weight 276 6.12323399573676603586882014729198302312846062338790031898128063403419218957424163818359375E-17 0
c p weight -276 1 0
c p weight 277 1 0
c p weight -277 1 0
c p weight 278 -1 0
c p weight -278 1 0
c p weight 280 -1 0
c p weight -280 1 0
c p weight 282 -1 0
c p weight -282 1 0
c p weight 284 6.12323399573676603586882014729198302312846062338790031898128063403419218957424163818359375E-17 0
c p weight -284 1 0
c p weight 285 1 0
c p weight -285 1 0
c p weight 286 -1 0
c p weight -286 1 0
c p weight 288 -1 0
c p weight -288 1 0
c p weight 291 -1 0
c p weight -291 1 0
c p weight 293 -1 0
c p weight -293 1 0
c p weight 295 6.12323399573676603586882014729198302312846062338790031898128063403419218957424163818359375E-17 0
c p weight -295 1 0
c p weight 296 1 0
c p weight -296 1 0
c p weight 297 -1 0
c p weight -297 1 0
c p weight 299 -1 0
c p weight -299 1 0
c p weight 301 -1 0
c p weight -301 1 0
c p weight 303 6.12323399573676603586882014729198302312846062338790031898128063403419218957424163818359375E-17 0
c p weight -303 1 0
c p weight 304 1 0
c p weight -304 1 0
c p weight 305 -1 0
c p weight -305 1 0
c p weight 307 -1 0
c p weight -307 1 0
c p weight 309 -1 0
c p weight -309 1 0
c p weight 311 6.12323399573676603586882014729198302312846062338790031898128063403419218957424163818359375E-17 0
c p weight -311 1 0
c p weight 312 1 0
c p weight -312 1 0
c p weight 313 -1 0
c p weight -313 1 0
c p weight 315 -1 0
c p weight -315 1 0
c p weight 318 -1 0
c p weight -318 1 0
c p weight 320 -1 0
c p weight -320 1 0
c p weight 322 6.12323399573676603586882014729198302312846062338790031898128063403419218957424163818359375E-17 0
c p weight -322 1 0
c p weight 323 1 0
c p weight -323 1 0
c p weight 324 -1 0
c p weight -324 1 0
c p weight 326 -1 0
c p weight -326 1 0
c p weight 328 -1 0
c p weight -328 1 0
c p weight 330 6.12323399573676603586882014729198302312846062338790031898128063403419218957424163818359375E-17 0
c p weight -330 1 0
c p weight 331 1 0
c p weight -331 1 0
c p weight 332 -1 0
c p weight -332 1 0
c p weight 334 -1 0
c p weight -334 1 0
c p weight 337 -1 0
c p weight -337 1 0
c p weight 339 -1 0
c p weight -339 1 0
c p weight 341 6.12323399573676603586882014729198302312846062338790031898128063403419218957424163818359375E-17 0
c p weight -341 1 0
c p weight 342 1 0
c p weight -342 1 0
c p weight 343 -1 0
c p weight -343 1 0
c p weight 345 -1 0
c p weight -345 1 0
c p weight 347 -1 0
c p weight -347 1 0
c p weight 349 6.12323399573676603586882014729198302312846062338790031898128063403419218957424163818359375E-17 0
c p weight -349 1 0
c p weight 350 1 0
c p weight -350 1 0
c p weight 351 -1 0
c p weight -351 1 0
c p weight 353 -1 0
c p weight -353 1 0
c p weight 355 -1 0
c p weight -355 1 0
c p weight 357 6.12323399573676603586882014729198302312846062338790031898128063403419218957424163818359375E-17 0
c p weight -357 1 0
c p weight 358 1 0
c p weight -358 1 0
c p weight 359 -1 0
c p weight -359 1 0
c p weight 361 -1 0
c p weight -361 1 0
c p weight 364 -1 0
c p weight -364 1 0
c p weight 366 -1 0
c p weight -366 1 0
c p weight 368 6.12323399573676603586882014729198302312846062338790031898128063403419218957424163818359375E-17 0
c p weight -368 1 0
c p weight 369 1 0
c p weight -369 1 0
c p weight 370 -1 0
c p weight -370 1 0
c p weight 372 -1 0
c p weight -372 1 0
c p weight 374 -1 0
c p weight -374 1 0
c p weight 376 6.12323399573676603586882014729198302312846062338790031898128063403419218957424163818359375E-17 0
c p weight -376 1 0
c p weight 377 1 0
c p weight -377 1 0
c p weight 378 -1 0
c p weight -378 1 0
c p weight 380 -1 0
c p weight -380 1 0
c p weight 383 -1 0
c p weight -383 1 0
c p weight 385 -1 0
c p weight -385 1 0
c p weight 387 6.12323399573676603586882014729198302312846062338790031898128063403419218957424163818359375E-17 0
c p weight -387 1 0
c p weight 388 1 0
c p weight -388 1 0
c p weight 389 -1 0
c p weight -389 1 0
c p weight 391 -1 0
c p weight -391 1 0
c p weight 393 -1 0
c p weight -393 1 0
c p weight 395 6.12323399573676603586882014729198302312846062338790031898128063403419218957424163818359375E-17 0
c p weight -395 1 0
c p weight 396 1 0
c p weight -396 1 0
c p weight 397 -1 0
c p weight -397 1 0
c p weight 399 -1 0
c p weight -399 1 0
c p weight 401 -1 0
c p weight -401 1 0
c p weight 403 6.12323399573676603586882014729198302312846062338790031898128063403419218957424163818359375E-17 0
c p weight -403 1 0
c p weight 404 1 0
c p weight -404 1 0
c p weight 405 -1 0
c p weight -405 1 0
c p weight 407 -1 0
c p weight -407 1 0
c p weight 410 -1 0
c p weight -410 1 0
c p weight 412 -1 0
c p weight -412 1 0
c p weight 414 6.12323399573676603586882014729198302312846062338790031898128063403419218957424163818359375E-17 0
c p weight -414 1 0
c p weight 415 1 0
c p weight -415 1 0
c p weight 416 -1 0
c p weight -416 1 0
c p weight 418 -1 0
c p weight -418 1 0
c p weight 420 -1 0
c p weight -420 1 0
c p weight 422 6.12323399573676603586882014729198302312846062338790031898128063403419218957424163818359375E-17 0
c p weight -422 1 0
c p weight 423 1 0
c p weight -423 1 0
c p weight 424 -1 0
c p weight -424 1 0
c p weight 426 -1 0
c p weight -426 1 0
c p weight 428 -1 0
c p weight -428 1 0
c p weight 430 6.12323399573676603586882014729198302312846062338790031898128063403419218957424163818359375E-17 0
c p weight -430 1 0
c p weight 431 1 0
c p weight -431 1 0
c p weight 432 -1 0
c p weight -432 1 0
c p weight 434 -1 0
c p weight -434 1 0
c p weight 437 -1 0
c p weight -437 1 0
c p weight 439 -1 0
c p weight -439 1 0
c p weight 441 6.12323399573676603586882014729198302312846062338790031898128063403419218957424163818359375E-17 0
c p weight -441 1 0
c p weight 442 1 0
c p weight -442 1 0
c p weight 443 -1 0
c p weight -443 1 0
c p weight 445 -1 0
c p weight -445 1 0
c p weight 447 -1 0
c p weight -447 1 0
c p weight 449 6.12323399573676603586882014729198302312846062338790031898128063403419218957424163818359375E-17 0
c p weight -449 1 0
c p weight 450 1 0
c p weight -450 1 0
c p weight 451 -1 0
c p weight -451 1 0
c p weight 453 -1 0
c p weight -453 1 0
c p weight 456 -1 0
c p weight -456 1 0
c p weight 458 -1 0
c p weight -458 1 0
c p weight 460 6.12323399573676603586882014729198302312846062338790031898128063403419218957424163818359375E-17 0
c p weight -460 1 0
c p weight 461 1 0
c p weight -461 1 0
c p weight 462 -1 0
c p weight -462 1 0
c p weight 464 -1 0
c p weight -464 1 0
-31 0
-29 0
-27 0
-25 0
-23 0
-21 0
-19 0
-17 0
-15 0
-13 0
-11 0
-9 0
-7 0
-5 0
-3 0
-1 0
33 1 -2 0
33 -1 2 0
-33 1 2 0
-33 -1 -2 0
-34 1 0
-34 2 0
34 -1 -2 0
35 -1 33 0
-35 1 33 0
-36 33 0
35 -36 -1 0
-35 -36 1 0
35 36 1 -33 0
-35 36 -1 -33 0
-37 33 0
35 -37 1 0
-35 -37 -1 0
35 37 -1 -33 0
-35 37 1 -33 0
-38 35 0
-38 33 0
-38 -1 0
38 -35 1 -33 0
39 35 -33 0
39 -35 33 0
-39 35 33 0
-39 -35 -33 0
-40 35 0
-40 33 0
40 -35 -33 0
41 3 -4 0
41 -3 4 0
-41 3 4 0
-41 -3 -4 0
-42 3 0
-42 4 0
42 -3 -4 0
43 -3 41 0
-43 3 41 0
-44 41 0
43 -44 -3 0
-43 -44 3 0
43 44 3 -41 0
-43 44 -3 -41 0
-45 41 0
43 -45 3 0
-43 -45 -3 0
43 45 -3 -41 0
-43 45 3 -41 0
-46 43 0
-46 41 0
-46 -3 0
46 -43 3 -41 0
47 43 -41 0
47 -43 41 0
-47 43 41 0
-47 -43 -41 0
-48 43 0
-48 41 0
48 -43 -41 0
49 43 -47 0
49 -43 47 0
-49 43 47 0
-49 -43 -47 0
-50 43 0
-50 47 0
50 -43 -47 0
51 -43 49 0
-51 43 49 0
-52 49 0
51 -52 -43 0
-51 -52 43 0
51 52 43 -49 0
-51 52 -43 -49 0
-53 49 0
51 -53 43 0
-51 -53 -43 0
51 53 -43 -49 0
-51 53 43 -49 0
-54 51 0
-54 49 0
-54 -43 0
54 -51 43 -49 0
55 51 -49 0
55 -51 49 0
-55 51 49 0
-55 -51 -49 0
-56 51 0
-56 49 0
56 -51 -49 0
57 35 -51 0
57 -35 51 0
-57 35 51 0
-57 -35 -51 0
58 39 -55 0
58 -39 55 0
-58 39 55 0
-58 -39 -55 0
-59 35 0
-59 55 0
-59 51 -39 0
-59 -51 39 0
59 -35 51 39 -55 0
59 -35 -51 -39 -55 0
60 57 -55 0
60 -57 55 0
-60 57 55 0
-60 -57 -55 0
-61 57 0
-61 55 0
61 -57 -55 0
62 -57 60 0
-62 57 60 0
-63 60 0
62 -63 -57 0
-62 -63 57 0
62 63 57 -60 0
-62 63 -57 -60 0
-64 60 0
62 -64 57 0
-62 -64 -57 0
62 64 -57 -60 0
-62 64 57 -60 0
-65 62 0
-65 60 0
-65 -57 0
65 -62 57 -60 0
66 62 -60 0
66 -62 60 0
-66 62 60 0
-66 -62 -60 0
-67 62 0
-67 60 0
67 -62 -60 0
68 5 -6 0
68 -5 6 0
-68 5 6 0
-68 -5 -6 0
-69 5 0
-69 6 0
69 -5 -6 0
70 -5 68 0
-70 5 68 0
-71 68 0
70 -71 -5 0
-70 -71 5 0
70 71 5 -68 0
-70 71 -5 -68 0
-72 68 0
70 -72 5 0
-70 -72 -5 0
70 72 -5 -68 0
-70 72 5 -68 0
-73 70 0
-73 68 0
-73 -5 0
73 -70 5 -68 0
74 70 -68 0
74 -70 68 0
-74 70 68 0
-74 -70 -68 0
-75 70 0
-75 68 0
75 -70 -68 0
76 7 -8 0
76 -7 8 0
-76 7 8 0
-76 -7 -8 0
-77 7 0
-77 8 0
77 -7 -8 0
78 -7 76 0
-78 7 76 0
-79 76 0
78 -79 -7 0
-78 -79 7 0
78 79 7 -76 0
-78 79 -7 -76 0
-80 76 0
78 -80 7 0
-78 -80 -7 0
78 80 -7 -76 0
-78 80 7 -76 0
-81 78 0
-81 76 0
-81 -7 0
81 -78 7 -76 0
82 78 -76 0
82 -78 76 0
-82 78 76 0
-82 -78 -76 0
-83 78 0
-83 76 0
83 -78 -76 0
84 78 -82 0
84 -78 82 0
-84 78 82 0
-84 -78 -82 0
-85 78 0
-85 82 0
85 -78 -82 0
86 -78 84 0
-86 78 84 0
-87 84 0
86 -87 -78 0
-86 -87 78 0
86 87 78 -84 0
-86 87 -78 -84 0
-88 84 0
86 -88 78 0
-86 -88 -78 0
86 88 -78 -84 0
-86 88 78 -84 0
-89 86 0
-89 84 0
-89 -78 0
89 -86 78 -84 0
90 86 -84 0
90 -86 84 0
-90 86 84 0
-90 -86 -84 0
-91 86 0
-91 84 0
91 -86 -84 0
92 70 -86 0
92 -70 86 0
-92 70 86 0
-92 -70 -86 0
93 74 -90 0
93 -74 90 0
-93 74 90 0
-93 -74 -90 0
-94 70 0
-94 90 0
-94 86 -74 0
-94 -86 74 0
94 -70 86 74 -90 0
94 -70 -86 -74 -90 0
95 92 -90 0
95 -92 90 0
-95 92 90 0
-95 -92 -90 0
-96 92 0
-96 90 0
96 -92 -90 0
97 -92 95 0
-97 92 95 0
-98 95 0
97 -98 -92 0
-97 -98 92 0
97 98 92 -95 0
-97 98 -92 -95 0
-99 95 0
97 -99 92 0
-97 -99 -92 0
97 99 -92 -95 0
-97 99 92 -95 0
-100 97 0
-100 95 0
-100 -92 0
100 -97 92 -95 0
101 97 -95 0
101 -97 95 0
-101 97 95 0
-101 -97 -95 0
-102 97 0
-102 95 0
102 -97 -95 0
103 9 -10 0
103 -9 10 0
-103 9 10 0
-103 -9 -10 0
-104 9 0
-104 10 0
104 -9 -10 0
105 -9 103 0
-105 9 103 0
-106 103 0
105 -106 -9 0
-105 -106 9 0
105 106 9 -103 0
-105 106 -9 -103 0
-107 103 0
105 -107 9 0
-105 -107 -9 0
105 107 -9 -103 0
-105 107 9 -103 0
-108 105 0
-108 103 0
-108 -9 0
108 -105 9 -103 0
109 105 -103 0
109 -105 103 0
-109 105 103 0
-109 -105 -103 0
-110 105 0
-110 103 0
110 -105 -103 0
111 105 -109 0
111 -105 109 0
-111 105 109 0
-111 -105 -109 0
-112 105 0
-112 109 0
112 -105 -109 0
113 -105 111 0
-113 105 111 0
-114 111 0
113 -114 -105 0
-113 -114 105 0
113 114 105 -111 0
-113 114 -105 -111 0
-115 111 0
113 -115 105 0
-113 -115 -105 0
113 115 -105 -111 0
-113 115 105 -111 0
-116 113 0
-116 111 0
-116 -105 0
116 -113 105 -111 0
117 113 -111 0
117 -113 111 0
-117 113 111 0
-117 -113 -111 0
-118 113 0
-118 111 0
118 -113 -111 0
119 62 -113 0
119 -62 113 0
-119 62 113 0
-119 -62 -113 0
120 66 -117 0
120 -66 117 0
-120 66 117 0
-120 -66 -117 0
-121 62 0
-121 117 0
-121 113 -66 0
-121 -113 66 0
121 -62 113 66 -117 0
121 -62 -113 -66 -117 0
122 119 -117 0
122 -119 117 0
-122 119 117 0
-122 -119 -117 0
-123 119 0
-123 117 0
123 -119 -117 0
124 -119 122 0
-124 119 122 0
-125 122 0
124 -125 -119 0
-124 -125 119 0
124 125 119 -122 0
-124 125 -119 -122 0
-126 122 0
124 -126 119 0
-124 -126 -119 0
124 126 -119 -122 0
-124 126 119 -122 0
-127 124 0
-127 122 0
-127 -119 0
127 -124 119 -122 0
128 124 -122 0
128 -124 122 0
-128 124 122 0
-128 -124 -122 0
-129 124 0
-129 122 0
129 -124 -122 0
130 124 -128 0
130 -124 128 0
-130 124 128 0
-130 -124 -128 0
-131 124 0
-131 128 0
131 -124 -128 0
132 -124 130 0
-132 124 130 0
-133 130 0
132 -133 -124 0
-132 -133 124 0
132 133 124 -130 0
-132 133 -124 -130 0
-134 130 0
132 -134 124 0
-132 -134 -124 0
132 134 -124 -130 0
-132 134 124 -130 0
-135 132 0
-135 130 0
-135 -124 0
135 -132 124 -130 0
136 132 -130 0
136 -132 130 0
-136 132 130 0
-136 -132 -130 0
-137 132 0
-137 130 0
137 -132 -130 0
138 97 -132 0
138 -97 132 0
-138 97 132 0
-138 -97 -132 0
139 101 -136 0
139 -101 136 0
-139 101 136 0
-139 -101 -136 0
-140 97 0
-140 136 0
-140 132 -101 0
-140 -132 101 0
140 -97 132 101 -136 0
140 -97 -132 -101 -136 0
141 138 -136 0
141 -138 136 0
-141 138 136 0
-141 -138 -136 0
-142 138 0
-142 136 0
142 -138 -136 0
143 -138 141 0
-143 138 141 0
-144 141 0
143 -144 -138 0
-143 -144 138 0
143 144 138 -141 0
-143 144 -138 -141 0
-145 141 0
143 -145 138 0
-143 -145 -138 0
143 145 -138 -141 0
-143 145 138 -141 0
-146 143 0
-146 141 0
-146 -138 0
146 -143 138 -141 0
147 143 -141 0
147 -143 141 0
-147 143 141 0
-147 -143 -141 0
-148 143 0
-148 141 0
148 -143 -141 0
149 11 -12 0
149 -11 12 0
-149 11 12 0
-149 -11 -12 0
-150 11 0
-150 12 0
150 -11 -12 0
151 -11 149 0
-151 11 149 0
-152 149 0
151 -152 -11 0
-151 -152 11 0
151 152 11 -149 0
-151 152 -11 -149 0
-153 149 0
151 -153 11 0
-151 -153 -11 0
151 153 -11 -149 0
-151 153 11 -149 0
-154 151 0
-154 149 0
-154 -11 0
154 -151 11 -149 0
155 151 -149 0
155 -151 149 0
-155 151 149 0
-155 -151 -149 0
-156 151 0
-156 149 0
156 -151 -149 0
157 13 -14 0
157 -13 14 0
-157 13 14 0
-157 -13 -14 0
-158 13 0
-158 14 0
158 -13 -14 0
159 -13 157 0
-159 13 157 0
-160 157 0
159 -160 -13 0
-159 -160 13 0
159 160 13 -157 0
-159 160 -13 -157 0
-161 157 0
159 -161 13 0
-159 -161 -13 0
159 161 -13 -157 0
-159 161 13 -157 0
-162 159 0
-162 157 0
-162 -13 0
162 -159 13 -157 0
163 159 -157 0
163 -159 157 0
-163 159 157 0
-163 -159 -157 0
-164 159 0
-164 157 0
164 -159 -157 0
165 159 -163 0
165 -159 163 0
-165 159 163 0
-165 -159 -163 0
-166 159 0
-166 163 0
166 -159 -163 0
167 -159 165 0
-167 159 165 0
-168 165 0
167 -168 -159 0
-167 -168 159 0
167 168 159 -165 0
-167 168 -159 -165 0
-169 165 0
167 -169 159 0
-167 -169 -159 0
167 169 -159 -165 0
-167 169 159 -165 0
-170 167 0
-170 165 0
-170 -159 0
170 -167 159 -165 0
171 167 -165 0
171 -167 165 0
-171 167 165 0
-171 -167 -165 0
-172 167 0
-172 165 0
172 -167 -165 0
173 151 -167 0
173 -151 167 0
-173 151 167 0
-173 -151 -167 0
174 155 -171 0
174 -155 171 0
-174 155 171 0
-174 -155 -171 0
-175 151 0
-175 171 0
-175 167 -155 0
-175 -167 155 0
175 -151 167 155 -171 0
175 -151 -167 -155 -171 0
176 173 -171 0
176 -173 171 0
-176 173 171 0
-176 -173 -171 0
-177 173 0
-177 171 0
177 -173 -171 0
178 -173 176 0
-178 173 176 0
-179 176 0
178 -179 -173 0
-178 -179 173 0
178 179 173 -176 0
-178 179 -173 -176 0
-180 176 0
178 -180 173 0
-178 -180 -173 0
178 180 -173 -176 0
-178 180 173 -176 0
-181 178 0
-181 176 0
-181 -173 0
181 -178 173 -176 0
182 178 -176 0
182 -178 176 0
-182 178 176 0
-182 -178 -176 0
-183 178 0
-183 176 0
183 -178 -176 0
184 15 -16 0
184 -15 16 0
-184 15 16 0
-184 -15 -16 0
-185 15 0
-185 16 0
185 -15 -16 0
186 -15 184 0
-186 15 184 0
-187 184 0
186 -187 -15 0
-186 -187 15 0
186 187 15 -184 0
-186 187 -15 -184 0
-188 184 0
186 -188 15 0
-186 -188 -15 0
186 188 -15 -184 0
-186 188 15 -184 0
-189 186 0
-189 184 0
-189 -15 0
189 -186 15 -184 0
190 186 -184 0
190 -186 184 0
-190 186 184 0
-190 -186 -184 0
-191 186 0
-191 184 0
191 -186 -184 0
192 17 -18 0
192 -17 18 0
-192 17 18 0
-192 -17 -18 0
-193 17 0
-193 18 0
193 -17 -18 0
194 -17 192 0
-194 17 192 0
-195 192 0
194 -195 -17 0
-194 -195 17 0
194 195 17 -192 0
-194 195 -17 -192 0
-196 192 0
194 -196 17 0
-194 -196 -17 0
194 196 -17 -192 0
-194 196 17 -192 0
-197 194 0
-197 192 0
-197 -17 0
197 -194 17 -192 0
198 194 -192 0
198 -194 192 0
-198 194 192 0
-198 -194 -192 0
-199 194 0
-199 192 0
199 -194 -192 0
200 194 -198 0
200 -194 198 0
-200 194 198 0
-200 -194 -198 0
-201 194 0
-201 198 0
201 -194 -198 0
202 -194 200 0
-202 194 200 0
-203 200 0
202 -203 -194 0
-202 -203 194 0
202 203 194 -200 0
-202 203 -194 -200 0
-204 200 0
202 -204 194 0
-202 -204 -194 0
202 204 -194 -200 0
-202 204 194 -200 0
-205 202 0
-205 200 0
-205 -194 0
205 -202 194 -200 0
206 202 -200 0
206 -202 200 0
-206 202 200 0
-206 -202 -200 0
-207 202 0
-207 200 0
207 -202 -200 0
208 186 -202 0
208 -186 202 0
-208 186 202 0
-208 -186 -202 0
209 190 -206 0
209 -190 206 0
-209 190 206 0
-209 -190 -206 0
-210 186 0
-210 206 0
-210 202 -190 0
-210 -202 190 0
210 -186 202 190 -206 0
210 -186 -202 -190 -206 0
211 208 -206 0
211 -208 206 0
-211 208 206 0
-211 -208 -206 0
-212 208 0
-212 206 0
212 -208 -206 0
213 -208 211 0
-213 208 211 0
-214 211 0
213 -214 -208 0
-213 -214 208 0
213 214 208 -211 0
-213 214 -208 -211 0
-215 211 0
213 -215 208 0
-213 -215 -208 0
213 215 -208 -211 0
-213 215 208 -211 0
-216 213 0
-216 211 0
-216 -208 0
216 -213 208 -211 0
217 213 -211 0
217 -213 211 0
-217 213 211 0
-217 -213 -211 0
-218 213 0
-218 211 0
218 -213 -211 0
219 19 -20 0
219 -19 20 0
-219 19 20 0
-219 -19 -20 0
-220 19 0
-220 20 0
220 -19 -20 0
221 -19 219 0
-221 19 219 0
-222 219 0
221 -222 -19 0
-221 -222 19 0
221 222 19 -219 0
-221 222 -19 -219 0
-223 219 0
221 -223 19 0
-221 -223 -19 0
221 223 -19 -219 0
-221 223 19 -219 0
-224 221 0
-224 219 0
-224 -19 0
224 -221 19 -219 0
225 221 -219 0
225 -221 219 0
-225 221 219 0
-225 -221 -219 0
-226 221 0
-226 219 0
226 -221 -219 0
227 221 -225 0
227 -221 225 0
-227 221 225 0
-227 -221 -225 0
-228 221 0
-228 225 0
228 -221 -225 0
229 -221 227 0
-229 221 227 0
-230 227 0
229 -230 -221 0
-229 -230 221 0
229 230 221 -227 0
-229 230 -221 -227 0
-231 227 0
229 -231 221 0
-229 -231 -221 0
229 231 -221 -227 0
-229 231 221 -227 0
-232 229 0
-232 227 0
-232 -221 0
232 -229 221 -227 0
233 229 -227 0
233 -229 227 0
-233 229 227 0
-233 -229 -227 0
-234 229 0
-234 227 0
234 -229 -227 0
235 178 -229 0
235 -178 229 0
-235 178 229 0
-235 -178 -229 0
236 182 -233 0
236 -182 233 0
-236 182 233 0
-236 -182 -233 0
-237 178 0
-237 233 0
-237 229 -182 0
-237 -229 182 0
237 -178 229 182 -233 0
237 -178 -229 -182 -233 0
238 235 -233 0
238 -235 233 0
-238 235 233 0
-238 -235 -233 0
-239 235 0
-239 233 0
239 -235 -233 0
240 -235 238 0
-240 235 238 0
-241 238 0
240 -241 -235 0
-240 -241 235 0
240 241 235 -238 0
-240 241 -235 -238 0
-242 238 0
240 -242 235 0
-240 -242 -235 0
240 242 -235 -238 0
-240 242 235 -238 0
-243 240 0
-243 238 0
-243 -235 0
243 -240 235 -238 0
244 240 -238 0
244 -240 238 0
-244 240 238 0
-244 -240 -238 0
-245 240 0
-245 238 0
245 -240 -238 0
246 21 -22 0
246 -21 22 0
-246 21 22 0
-246 -21 -22 0
-247 21 0
-247 22 0
247 -21 -22 0
248 -21 246 0
-248 21 246 0
-249 246 0
248 -249 -21 0
-248 -249 21 0
248 249 21 -246 0
-248 249 -21 -246 0
-250 246 0
248 -250 21 0
-248 -250 -21 0
248 250 -21 -246 0
-248 250 21 -246 0
-251 248 0
-251 246 0
-251 -21 0
251 -248 21 -246 0
252 248 -246 0
252 -248 246 0
-252 248 246 0
-252 -248 -246 0
-253 248 0
-253 246 0
253 -248 -246 0
254 248 -252 0
254 -248 252 0
-254 248 252 0
-254 -248 -252 0
-255 248 0
-255 252 0
255 -248 -252 0
256 -248 254 0
-256 248 254 0
-257 254 0
256 -257 -248 0
-256 -257 248 0
256 257 248 -254 0
-256 257 -248 -254 0
-258 254 0
256 -258 248 0
-256 -258 -248 0
256 258 -248 -254 0
-256 258 248 -254 0
-259 256 0
-259 254 0
-259 -248 0
259 -256 248 -254 0
260 256 -254 0
260 -256 254 0
-260 256 254 0
-260 -256 -254 0
-261 256 0
-261 254 0
261 -256 -254 0
262 240 -256 0
262 -240 256 0
-262 240 256 0
-262 -240 -256 0
263 244 -260 0
263 -244 260 0
-263 244 260 0
-263 -244 -260 0
-264 240 0
-264 260 0
-264 256 -244 0
-264 -256 244 0
264 -240 256 244 -260 0
264 -240 -256 -244 -260 0
265 262 -260 0
265 -262 260 0
-265 262 260 0
-265 -262 -260 0
-266 262 0
-266 260 0
266 -262 -260 0
267 -262 265 0
-267 262 265 0
-268 265 0
267 -268 -262 0
-267 -268 262 0
267 268 262 -265 0
-267 268 -262 -265 0
-269 265 0
267 -269 262 0
-267 -269 -262 0
267 269 -262 -265 0
-267 269 262 -265 0
-270 267 0
-270 265 0
-270 -262 0
270 -267 262 -265 0
271 267 -265 0
271 -267 265 0
-271 267 265 0
-271 -267 -265 0
-272 267 0
-272 265 0
272 -267 -265 0
273 23 -24 0
273 -23 24 0
-273 23 24 0
-273 -23 -24 0
-274 23 0
-274 24 0
274 -23 -24 0
275 -23 273 0
-275 23 273 0
-276 273 0
275 -276 -23 0
-275 -276 23 0
275 276 23 -273 0
-275 276 -23 -273 0
-277 273 0
275 -277 23 0
-275 -277 -23 0
275 277 -23 -273 0
-275 277 23 -273 0
-278 275 0
-278 273 0
-278 -23 0
278 -275 23 -273 0
279 275 -273 0
279 -275 273 0
-279 275 273 0
-279 -275 -273 0
-280 275 0
-280 273 0
280 -275 -273 0
281 275 -279 0
281 -275 279 0
-281 275 279 0
-281 -275 -279 0
-282 275 0
-282 279 0
282 -275 -279 0
283 -275 281 0
-283 275 281 0
-284 281 0
283 -284 -275 0
-283 -284 275 0
283 284 275 -281 0
-283 284 -275 -281 0
-285 281 0
283 -285 275 0
-283 -285 -275 0
283 285 -275 -281 0
-283 285 275 -281 0
-286 283 0
-286 281 0
-286 -275 0
286 -283 275 -281 0
287 283 -281 0
287 -283 281 0
-287 283 281 0
-287 -283 -281 0
-288 283 0
-288 281 0
288 -283 -281 0
289 186 -283 0
289 -186 283 0
-289 186 283 0
-289 -186 -283 0
290 209 -287 0
290 -209 287 0
-290 209 287 0
-290 -209 -287 0
-291 186 0
-291 287 0
-291 283 -209 0
-291 -283 209 0
291 -186 283 209 -287 0
291 -186 -283 -209 -287 0
292 289 -287 0
292 -289 287 0
-292 289 287 0
-292 -289 -287 0
-293 289 0
-293 287 0
293 -289 -287 0
294 -289 292 0
-294 289 292 0
-295 292 0
294 -295 -289 0
-294 -295 289 0
294 295 289 -292 0
-294 295 -289 -292 0
-296 292 0
294 -296 289 0
-294 -296 -289 0
294 296 -289 -292 0
-294 296 289 -292 0
-297 294 0
-297 292 0
-297 -289 0
297 -294 289 -292 0
298 294 -292 0
298 -294 292 0
-298 294 292 0
-298 -294 -292 0
-299 294 0
-299 292 0
299 -294 -292 0
300 25 -26 0
300 -25 26 0
-300 25 26 0
-300 -25 -26 0
-301 25 0
-301 26 0
301 -25 -26 0
302 -25 300 0
-302 25 300 0
-303 300 0
302 -303 -25 0
-302 -303 25 0
302 303 25 -300 0
-302 303 -25 -300 0
-304 300 0
302 -304 25 0
-302 -304 -25 0
302 304 -25 -300 0
-302 304 25 -300 0
-305 302 0
-305 300 0
-305 -25 0
305 -302 25 -300 0
306 302 -300 0
306 -302 300 0
-306 302 300 0
-306 -302 -300 0
-307 302 0
-307 300 0
307 -302 -300 0
308 302 -306 0
308 -302 306 0
-308 302 306 0
-308 -302 -306 0
-309 302 0
-309 306 0
309 -302 -306 0
310 -302 308 0
-310 302 308 0
-311 308 0
310 -311 -302 0
-310 -311 302 0
310 311 302 -308 0
-310 311 -302 -308 0
-312 308 0
310 -312 302 0
-310 -312 -302 0
310 312 -302 -308 0
-310 312 302 -308 0
-313 310 0
-313 308 0
-313 -302 0
313 -310 302 -308 0
314 310 -308 0
314 -310 308 0
-314 310 308 0
-314 -310 -308 0
-315 310 0
-315 308 0
315 -310 -308 0
316 151 -310 0
316 -151 310 0
-316 151 310 0
-316 -151 -310 0
317 174 -314 0
317 -174 314 0
-317 174 314 0
-317 -174 -314 0
-318 151 0
-318 314 0
-318 310 -174 0
-318 -310 174 0
318 -151 310 174 -314 0
318 -151 -310 -174 -314 0
319 316 -314 0
319 -316 314 0
-319 316 314 0
-319 -316 -314 0
-320 316 0
-320 314 0
320 -316 -314 0
321 -316 319 0
-321 316 319 0
-322 319 0
321 -322 -316 0
-321 -322 316 0
321 322 316 -319 0
-321 322 -316 -319 0
-323 319 0
321 -323 316 0
-321 -323 -316 0
321 323 -316 -319 0
-321 323 316 -319 0
-324 321 0
-324 319 0
-324 -316 0
324 -321 316 -319 0
325 321 -319 0
325 -321 319 0
-325 321 319 0
-325 -321 -319 0
-326 321 0
-326 319 0
326 -321 -319 0
327 321 -325 0
327 -321 325 0
-327 321 325 0
-327 -321 -325 0
-328 321 0
-328 325 0
328 -321 -325 0
329 -321 327 0
-329 321 327 0
-330 327 0
329 -330 -321 0
-329 -330 321 0
329 330 321 -327 0
-329 330 -321 -327 0
-331 327 0
329 -331 321 0
-329 -331 -321 0
329 331 -321 -327 0
-329 331 321 -327 0
-332 329 0
-332 327 0
-332 -321 0
332 -329 321 -327 0
333 329 -327 0
333 -329 327 0
-333 329 327 0
-333 -329 -327 0
-334 329 0
-334 327 0
334 -329 -327 0
335 213 -329 0
335 -213 329 0
-335 213 329 0
-335 -213 -329 0
336 217 -333 0
336 -217 333 0
-336 217 333 0
-336 -217 -333 0
-337 213 0
-337 333 0
-337 329 -217 0
-337 -329 217 0
337 -213 329 217 -333 0
337 -213 -329 -217 -333 0
338 335 -333 0
338 -335 333 0
-338 335 333 0
-338 -335 -333 0
-339 335 0
-339 333 0
339 -335 -333 0
340 -335 338 0
-340 335 338 0
-341 338 0
340 -341 -335 0
-340 -341 335 0
340 341 335 -338 0
-340 341 -335 -338 0
-342 338 0
340 -342 335 0
-340 -342 -335 0
340 342 -335 -338 0
-340 342 335 -338 0
-343 340 0
-343 338 0
-343 -335 0
343 -340 335 -338 0
344 340 -338 0
344 -340 338 0
-344 340 338 0
-344 -340 -338 0
-345 340 0
-345 338 0
345 -340 -338 0
346 27 -28 0
346 -27 28 0
-346 27 28 0
-346 -27 -28 0
-347 27 0
-347 28 0
347 -27 -28 0
348 -27 346 0
-348 27 346 0
-349 346 0
348 -349 -27 0
-348 -349 27 0
348 349 27 -346 0
-348 349 -27 -346 0
-350 346 0
348 -350 27 0
-348 -350 -27 0
348 350 -27 -346 0
-348 350 27 -346 0
-351 348 0
-351 346 0
-351 -27 0
351 -348 27 -346 0
352 348 -346 0
352 -348 346 0
-352 348 346 0
-352 -348 -346 0
-353 348 0
-353 346 0
353 -348 -346 0
354 348 -352 0
354 -348 352 0
-354 348 352 0
-354 -348 -352 0
-355 348 0
-355 352 0
355 -348 -352 0
356 -348 354 0
-356 348 354 0
-357 354 0
356 -357 -348 0
-356 -357 348 0
356 357 348 -354 0
-356 357 -348 -354 0
-358 354 0
356 -358 348 0
-356 -358 -348 0
356 358 -348 -354 0
-356 358 348 -354 0
-359 356 0
-359 354 0
-359 -348 0
359 -356 348 -354 0
360 356 -354 0
360 -356 354 0
-360 356 354 0
-360 -356 -354 0
-361 356 0
-361 354 0
361 -356 -354 0
362 267 -356 0
362 -267 356 0
-362 267 356 0
-362 -267 -356 0
363 271 -360 0
363 -271 360 0
-363 271 360 0
-363 -271 -360 0
-364 267 0
-364 360 0
-364 356 -271 0
-364 -356 271 0
364 -267 356 271 -360 0
364 -267 -356 -271 -360 0
365 362 -360 0
365 -362 360 0
-365 362 360 0
-365 -362 -360 0
-366 362 0
-366 360 0
366 -362 -360 0
367 -362 365 0
-367 362 365 0
-368 365 0
367 -368 -362 0
-367 -368 362 0
367 368 362 -365 0
-367 368 -362 -365 0
-369 365 0
367 -369 362 0
-367 -369 -362 0
367 369 -362 -365 0
-367 369 362 -365 0
-370 367 0
-370 365 0
-370 -362 0
370 -367 362 -365 0
371 367 -365 0
371 -367 365 0
-371 367 365 0
-371 -367 -365 0
-372 367 0
-372 365 0
372 -367 -365 0
373 367 -371 0
373 -367 371 0
-373 367 371 0
-373 -367 -371 0
-374 367 0
-374 371 0
374 -367 -371 0
375 -367 373 0
-375 367 373 0
-376 373 0
375 -376 -367 0
-375 -376 367 0
375 376 367 -373 0
-375 376 -367 -373 0
-377 373 0
375 -377 367 0
-375 -377 -367 0
375 377 -367 -373 0
-375 377 367 -373 0
-378 375 0
-378 373 0
-378 -367 0
378 -375 367 -373 0
379 375 -373 0
379 -375 373 0
-379 375 373 0
-379 -375 -373 0
-380 375 0
-380 373 0
380 -375 -373 0
381 294 -375 0
381 -294 375 0
-381 294 375 0
-381 -294 -375 0
382 298 -379 0
382 -298 379 0
-382 298 379 0
-382 -298 -379 0
-383 294 0
-383 379 0
-383 375 -298 0
-383 -375 298 0
383 -294 375 298 -379 0
383 -294 -375 -298 -379 0
384 381 -379 0
384 -381 379 0
-384 381 379 0
-384 -381 -379 0
-385 381 0
-385 379 0
385 -381 -379 0
386 -381 384 0
-386 381 384 0
-387 384 0
386 -387 -381 0
-386 -387 381 0
386 387 381 -384 0
-386 387 -381 -384 0
-388 384 0
386 -388 381 0
-386 -388 -381 0
386 388 -381 -384 0
-386 388 381 -384 0
-389 386 0
-389 384 0
-389 -381 0
389 -386 381 -384 0
390 386 -384 0
390 -386 384 0
-390 386 384 0
-390 -386 -384 0
-391 386 0
-391 384 0
391 -386 -384 0
392 29 -30 0
392 -29 30 0
-392 29 30 0
-392 -29 -30 0
-393 29 0
-393 30 0
393 -29 -30 0
394 -29 392 0
-394 29 392 0
-395 392 0
394 -395 -29 0
-394 -395 29 0
394 395 29 -392 0
-394 395 -29 -392 0
-396 392 0
394 -396 29 0
-394 -396 -29 0
394 396 -29 -392 0
-394 396 29 -392 0
-397 394 0
-397 392 0
-397 -29 0
397 -394 29 -392 0
398 394 -392 0
398 -394 392 0
-398 394 392 0
-398 -394 -392 0
-399 394 0
-399 392 0
399 -394 -392 0
400 394 -398 0
400 -394 398 0
-400 394 398 0
-400 -394 -398 0
-401 394 0
-401 398 0
401 -394 -398 0
402 -394 400 0
-402 394 400 0
-403 400 0
402 -403 -394 0
-402 -403 394 0
402 403 394 -400 0
-402 403 -394 -400 0
-404 400 0
402 -404 394 0
-402 -404 -394 0
402 404 -394 -400 0
-402 404 394 -400 0
-405 402 0
-405 400 0
-405 -394 0
405 -402 394 -400 0
406 402 -400 0
406 -402 400 0
-406 402 400 0
-406 -402 -400 0
-407 402 0
-407 400 0
407 -402 -400 0
408 70 -402 0
408 -70 402 0
-408 70 402 0
-408 -70 -402 0
409 93 -406 0
409 -93 406 0
-409 93 406 0
-409 -93 -406 0
-410 70 0
-410 406 0
-410 402 -93 0
-410 -402 93 0
410 -70 402 93 -406 0
410 -70 -402 -93 -406 0
411 408 -406 0
411 -408 406 0
-411 408 406 0
-411 -408 -406 0
-412 408 0
-412 406 0
412 -408 -406 0
413 -408 411 0
-413 408 411 0
-414 411 0
413 -414 -408 0
-413 -414 408 0
413 414 408 -411 0
-413 414 -408 -411 0
-415 411 0
413 -415 408 0
-413 -415 -408 0
413 415 -408 -411 0
-413 415 408 -411 0
-416 413 0
-416 411 0
-416 -408 0
416 -413 408 -411 0
417 413 -411 0
417 -413 411 0
-417 413 411 0
-417 -413 -411 0
-418 413 0
-418 411 0
418 -413 -411 0
419 31 -32 0
419 -31 32 0
-419 31 32 0
-419 -31 -32 0
-420 31 0
-420 32 0
420 -31 -32 0
421 -31 419 0
-421 31 419 0
-422 419 0
421 -422 -31 0
-421 -422 31 0
421 422 31 -419 0
-421 422 -31 -419 0
-423 419 0
421 -423 31 0
-421 -423 -31 0
421 423 -31 -419 0
-421 423 31 -419 0
-424 421 0
-424 419 0
-424 -31 0
424 -421 31 -419 0
425 421 -419 0
425 -421 419 0
-425 421 419 0
-425 -421 -419 0
-426 421 0
-426 419 0
426 -421 -419 0
427 421 -425 0
427 -421 425 0
-427 421 425 0
-427 -421 -425 0
-428 421 0
-428 425 0
428 -421 -425 0
429 -421 427 0
-429 421 427 0
-430 427 0
429 -430 -421 0
-429 -430 421 0
429 430 421 -427 0
-429 430 -421 -427 0
-431 427 0
429 -431 421 0
-429 -431 -421 0
429 431 -421 -427 0
-429 431 421 -427 0
-432 429 0
-432 427 0
-432 -421 0
432 -429 421 -427 0
433 429 -427 0
433 -429 427 0
-433 429 427 0
-433 -429 -427 0
-434 429 0
-434 427 0
434 -429 -427 0
435 35 -429 0
435 -35 429 0
-435 35 429 0
-435 -35 -429 0
436 58 -433 0
436 -58 433 0
-436 58 433 0
-436 -58 -433 0
-437 35 0
-437 433 0
-437 429 -58 0
-437 -429 58 0
437 -35 429 58 -433 0
437 -35 -429 -58 -433 0
438 435 -433 0
438 -435 433 0
-438 435 433 0
-438 -435 -433 0
-439 435 0
-439 433 0
439 -435 -433 0
440 -435 438 0
-440 435 438 0
-441 438 0
440 -441 -435 0
-440 -441 435 0
440 441 435 -438 0
-440 441 -435 -438 0
-442 438 0
440 -442 435 0
-440 -442 -435 0
440 442 -435 -438 0
-440 442 435 -438 0
-443 440 0
-443 438 0
-443 -435 0
443 -440 435 -438 0
444 440 -438 0
444 -440 438 0
-444 440 438 0
-444 -440 -438 0
-445 440 0
-445 438 0
445 -440 -438 0
446 440 -444 0
446 -440 444 0
-446 440 444 0
-446 -440 -444 0
-447 440 0
-447 444 0
447 -440 -444 0
448 -440 446 0
-448 440 446 0
-449 446 0
448 -449 -440 0
-448 -449 440 0
448 449 440 -446 0
-448 449 -440 -446 0
-450 446 0
448 -450 440 0
-448 -450 -440 0
448 450 -440 -446 0
-448 450 440 -446 0
-451 448 0
-451 446 0
-451 -440 0
451 -448 440 -446 0
452 448 -446 0
452 -448 446 0
-452 448 446 0
-452 -448 -446 0
-453 448 0
-453 446 0
453 -448 -446 0
454 413 -448 0
454 -413 448 0
-454 413 448 0
-454 -413 -448 0
455 417 -452 0
455 -417 452 0
-455 417 452 0
-455 -417 -452 0
-456 413 0
-456 452 0
-456 448 -417 0
-456 -448 417 0
456 -413 448 417 -452 0
456 -413 -448 -417 -452 0
457 454 -452 0
457 -454 452 0
-457 454 452 0
-457 -454 -452 0
-458 454 0
-458 452 0
458 -454 -452 0
459 -454 457 0
-459 454 457 0
-460 457 0
459 -460 -454 0
-459 -460 454 0
459 460 454 -457 0
-459 460 -454 -457 0
-461 457 0
459 -461 454 0
-459 -461 -454 0
459 461 -454 -457 0
-459 461 454 -457 0
-462 459 0
-462 457 0
-462 -454 0
462 -459 454 -457 0
463 459 -457 0
463 -459 457 0
-463 459 457 0
-463 -459 -457 0
-464 459 0
-464 457 0
464 -459 -457 0
-35 0
-62 0
-120 0
-70 0
-409 0
-97 0
-139 0
-143 0
-147 0
-151 0
-317 0
-178 0
-236 0
-186 0
-290 0
-213 0
-336 0
-240 0
-263 0
-267 0
-363 0
-294 0
-382 0
-340 0
-344 0
-386 0
-390 0
-413 0
-455 0
-459 0
-463 0
